Geographic Exponential Decay
40 297 291 34 88 50 298 248 149 44 78 294 171 289 260 170 275 303 176 51 129 211 11 181 58 216 306 68 242 128 207 168 71 101 8 42 266 205 150 146 185
p edge 320 329
e 0 105 2.0
e 1 135 1.0
e 1 0 1.0
e 2 273 4.0
e 2 1 5.0
e 3 72 5.0
e 3 2 8.0
e 4 258 1.0
e 4 3 10.0
e 5 53 1.0
e 5 4 1.0
e 6 143 2.0
e 6 5 1.0
e 7 165 16.0
e 7 6 1.0
e 8 222 46.0
e 8 144 23.0
e 8 308 16.0
e 8 294 5.0
e 8 182 69.0
e 8 7 15.0
e 9 113 10.0
e 9 8 21.0
e 10 45 2.0
e 10 9 12.0
e 11 114 7.0
e 11 314 47.0
e 11 80 58.0
e 11 63 2.0
e 11 242 31.0
e 12 175 1.0
e 12 10 1.0
e 13 94 1.0
e 13 12 2.0
e 14 215 2.0
e 14 13 5.0
e 15 119 1.0
e 15 14 6.0
e 16 158 9.0
e 17 120 1.0
e 17 15 2.0
e 18 263 1.0
e 18 17 1.0
e 19 230 25.0
e 19 18 3.0
e 20 280 10.0
e 20 19 1.0
e 21 150 41.0
e 21 20 5.0
e 22 191 1.0
e 22 21 2.0
e 23 210 1.0
e 23 22 3.0
e 24 57 1.0
e 24 23 1.0
e 25 65 1.0
e 25 24 1.0
e 26 305 2.0
e 26 25 8.0
e 27 82 2.0
e 27 26 1.0
e 28 209 2.0
e 28 27 1.0
e 29 116 3.0
e 29 28 3.0
e 30 274 1.0
e 30 29 4.0
e 31 286 1.0
e 31 30 2.0
e 32 261 1.0
e 32 31 1.0
e 33 34 54.0
e 34 35 62.0
e 34 265 76.0
e 34 177 39.0
e 34 231 43.0
e 36 125 10.0
e 36 32 1.0
e 37 271 4.0
e 37 36 10.0
e 38 140 4.0
e 38 37 2.0
e 39 159 4.0
e 39 38 3.0
e 40 293 1.0
e 40 39 3.0
e 41 147 11.0
e 41 40 1.0
e 42 43 12.0
e 42 281 97.0
e 42 102 69.0
e 42 138 99.0
e 42 178 58.0
e 42 41 49.0
e 44 241 17.0
e 44 262 82.0
e 44 111 22.0
e 44 152 79.0
e 44 211 83.0
e 46 276 5.0
e 46 42 47.0
e 47 48 5.0
e 47 46 1.0
e 49 287 1.0
e 49 47 1.0
e 50 200 44.0
e 50 51 58.0
e 50 249 14.0
e 50 123 63.0
e 50 226 69.0
e 50 49 67.0
e 51 217 78.0
e 51 183 47.0
e 51 52 40.0
e 51 54 45.0
e 55 315 5.0
e 55 50 99.0
e 56 297 74.0
e 58 225 4.0
e 58 145 11.0
e 58 59 92.0
e 58 148 91.0
e 58 238 72.0
e 58 55 73.0
e 60 61 11.0
e 60 301 2.0
e 60 58 92.0
e 62 167 2.0
e 62 60 19.0
e 64 66 4.0
e 64 62 4.0
e 67 256 1.0
e 67 64 3.0
e 68 275 70.0
e 68 142 38.0
e 68 242 88.0
e 68 69 51.0
e 68 70 32.0
e 71 198 86.0
e 71 187 99.0
e 71 89 47.0
e 71 185 71.0
e 71 73 5.0
e 71 67 2.0
e 74 86 1.0
e 74 71 61.0
e 75 146 17.0
e 76 77 2.0
e 76 74 11.0
e 78 79 1.0
e 78 81 99.0
e 78 121 68.0
e 78 194 16.0
e 78 259 93.0
e 78 76 76.0
e 83 181 100.0
e 84 290 1.0
e 84 78 25.0
e 85 149 13.0
e 87 88 42.0
e 88 291 34.0
e 88 90 24.0
e 88 91 70.0
e 88 92 38.0
e 93 117 24.0
e 93 84 1.0
e 95 96 3.0
e 95 93 2.0
e 97 98 9.0
e 97 95 5.0
e 99 272 3.0
e 99 97 2.0
e 100 101 79.0
e 100 99 5.0
e 101 103 4.0
e 101 104 63.0
e 101 106 75.0
e 101 107 49.0
e 106 108 23.0
e 109 166 1.0
e 109 100 2.0
e 110 126 2.0
e 110 109 2.0
e 112 115 18.0
e 112 264 7.0
e 112 110 14.0
e 117 310 16.0
e 118 211 45.0
e 122 260 55.0
e 124 160 2.0
e 124 112 17.0
e 127 237 3.0
e 127 124 7.0
e 128 129 72.0
e 128 174 21.0
e 128 312 5.0
e 128 302 28.0
e 128 130 91.0
e 129 239 81.0
e 129 207 8.0
e 129 154 93.0
e 129 266 86.0
e 131 192 1.0
e 131 127 11.0
e 132 133 27.0
e 132 131 3.0
e 133 134 43.0
e 133 136 25.0
e 137 139 1.0
e 137 132 1.0
e 141 250 4.0
e 141 137 1.0
e 146 149 16.0
e 146 161 3.0
e 146 299 77.0
e 146 292 69.0
e 149 162 39.0
e 149 150 54.0
e 149 151 96.0
e 150 202 82.0
e 150 193 55.0
e 150 288 45.0
e 153 155 1.0
e 153 141 1.0
e 156 157 1.0
e 156 153 1.0
e 158 201 24.0
e 163 164 12.0
e 163 165 13.0
e 168 195 14.0
e 168 228 37.0
e 168 244 100.0
e 168 169 17.0
e 168 311 24.0
e 170 171 97.0
e 170 172 38.0
e 170 173 66.0
e 170 176 95.0
e 170 177 25.0
e 171 266 23.0
e 171 295 30.0
e 171 211 90.0
e 171 177 77.0
e 176 204 77.0
e 176 179 27.0
e 176 180 46.0
e 176 181 53.0
e 181 184 97.0
e 181 205 83.0
e 181 211 83.0
e 185 186 100.0
e 185 188 48.0
e 185 257 56.0
e 185 189 21.0
e 190 285 1.0
e 190 156 2.0
e 193 195 10.0
e 196 197 24.0
e 196 199 6.0
e 196 190 9.0
e 201 291 58.0
e 203 278 1.0
e 203 196 15.0
e 205 206 40.0
e 205 207 13.0
e 205 208 77.0
e 205 211 55.0
e 207 212 77.0
e 207 213 12.0
e 207 214 58.0
e 214 245 11.0
e 216 309 55.0
e 216 266 15.0
e 216 243 33.0
e 216 218 92.0
e 216 219 73.0
e 220 229 7.0
e 220 203 1.0
e 221 223 1.0
e 221 220 9.0
e 224 227 3.0
e 224 221 1.0
e 230 232 19.0
e 233 234 1.0
e 233 224 3.0
e 235 294 25.0
e 236 240 19.0
e 240 242 53.0
e 242 246 85.0
e 242 247 61.0
e 248 251 33.0
e 248 252 22.0
e 248 253 1.0
e 248 254 58.0
e 248 317 62.0
e 248 233 50.0
e 255 260 10.0
e 260 266 36.0
e 260 267 22.0
e 260 268 100.0
e 266 269 53.0
e 270 275 98.0
e 275 277 53.0
e 275 316 56.0
e 275 279 10.0
e 282 283 49.0
e 283 284 45.0
e 283 289 67.0
e 289 291 41.0
e 289 294 42.0
e 289 296 65.0
e 289 297 96.0
e 291 294 56.0
e 291 297 60.0
e 294 297 14.0
e 297 298 79.0
e 298 300 23.0
e 298 303 20.0
e 298 304 53.0
e 298 306 21.0
e 303 306 89.0
e 303 307 46.0
e 303 312 69.0
e 303 313 5.0
e 306 307 68.0
e 306 312 18.0
e 306 316 66.0
e 318 319 3.0
e 318 248 14.0
